(set-logic ALL)
(declare-const numerator_VAR Int)
(declare-const denominator_VAR Int)
(declare-const limit_VAR Int)
(assert (< 1 (+ limit_VAR 1)))
(assert (not (= denominator_VAR 0)))
(assert (not (= denominator_VAR 0)))
(assert (< 2 (+ limit_VAR 1)))
(assert (not (= denominator_VAR 0)))
(assert (not (= denominator_VAR 0)))
(assert (< 3 (+ limit_VAR 1)))
(assert (not (= denominator_VAR 0)))
(assert (not (= denominator_VAR 0)))
(assert (< 4 (+ limit_VAR 1)))
(assert (not (= denominator_VAR 0)))
(assert (not (= denominator_VAR 0)))
(assert (< 5 (+ limit_VAR 1)))
(assert (not (= denominator_VAR 0)))
(assert (not (= denominator_VAR 0)))
(assert (< 6 (+ limit_VAR 1)))
(assert (not (= denominator_VAR 0)))
(assert (not (= denominator_VAR 0)))
(assert (< 7 (+ limit_VAR 1)))
(assert (not (= denominator_VAR 0)))
(assert (not (= denominator_VAR 0)))
(assert (< 8 (+ limit_VAR 1)))
(assert (not (= denominator_VAR 0)))
(assert (not (= denominator_VAR 0)))
(assert (< 9 (+ limit_VAR 1)))
(assert (not (= denominator_VAR 0)))
(assert (not (= denominator_VAR 0)))
(assert (< 10 (+ limit_VAR 1)))
(assert (not (= denominator_VAR 0)))
(assert (not (= denominator_VAR 0)))
(assert (< 11 (+ limit_VAR 1)))
(assert (not (= denominator_VAR 0)))
(assert (not (= denominator_VAR 0)))
(assert (< 12 (+ limit_VAR 1)))
(assert (not (= denominator_VAR 0)))
(assert (not (= denominator_VAR 0)))
(assert (< 13 (+ limit_VAR 1)))
(assert (not (= denominator_VAR 0)))
(assert (not (= denominator_VAR 0)))
(assert (< 14 (+ limit_VAR 1)))
(assert (not (= denominator_VAR 0)))
(assert (not (= denominator_VAR 0)))
(assert (< 15 (+ limit_VAR 1)))
(assert (not (= denominator_VAR 0)))
(assert (not (= denominator_VAR 0)))
(assert (< 16 (+ limit_VAR 1)))
(assert (not (= denominator_VAR 0)))
(assert (not (= denominator_VAR 0)))
(assert (< 17 (+ limit_VAR 1)))
(assert (not (= denominator_VAR 0)))
(assert (not (= denominator_VAR 0)))
(assert (< 18 (+ limit_VAR 1)))
(assert (not (= denominator_VAR 0)))
(assert (not (= denominator_VAR 0)))
(assert (< 19 (+ limit_VAR 1)))
(assert (not (= denominator_VAR 0)))
(assert (not (= denominator_VAR 0)))
(assert (< 20 (+ limit_VAR 1)))
(assert (not (= denominator_VAR 0)))
(assert (not (= denominator_VAR 0)))
(assert (< 21 (+ limit_VAR 1)))
(assert (not (= denominator_VAR 0)))
(assert (not (= denominator_VAR 0)))
(assert (< 22 (+ limit_VAR 1)))
(assert (not (= denominator_VAR 0)))
(assert (not (= denominator_VAR 0)))
(assert (< 23 (+ limit_VAR 1)))
(assert (not (= denominator_VAR 0)))
(assert (not (= denominator_VAR 0)))
(assert (< 24 (+ limit_VAR 1)))
(assert (not (= denominator_VAR 0)))
(assert (not (= denominator_VAR 0)))
(assert (< 25 (+ limit_VAR 1)))
(assert (not (= denominator_VAR 0)))
(assert (not (= denominator_VAR 0)))
(assert (< 26 (+ limit_VAR 1)))
(assert (not (= denominator_VAR 0)))
(assert (not (= denominator_VAR 0)))
(assert (< 27 (+ limit_VAR 1)))
(assert (not (= denominator_VAR 0)))
(assert (not (= denominator_VAR 0)))
(assert (< 28 (+ limit_VAR 1)))
(assert (not (= denominator_VAR 0)))
(assert (not (= denominator_VAR 0)))
(assert (< 29 (+ limit_VAR 1)))
(assert (not (= denominator_VAR 0)))
(assert (not (= denominator_VAR 0)))
(assert (< 30 (+ limit_VAR 1)))
(assert (not (= denominator_VAR 0)))
(assert (not (= denominator_VAR 0)))
(assert (< 31 (+ limit_VAR 1)))
(assert (not (= denominator_VAR 0)))
(assert (not (= denominator_VAR 0)))
(assert (< 32 (+ limit_VAR 1)))
(assert (not (= denominator_VAR 0)))
(assert (not (= denominator_VAR 0)))
(assert (< 33 (+ limit_VAR 1)))
(assert (not (= denominator_VAR 0)))
(assert (not (= denominator_VAR 0)))
(assert (< 34 (+ limit_VAR 1)))
(assert (not (= denominator_VAR 0)))
(assert (not (= denominator_VAR 0)))
(assert (< 35 (+ limit_VAR 1)))
(assert (not (= denominator_VAR 0)))
(assert (not (= denominator_VAR 0)))
(assert (< 36 (+ limit_VAR 1)))
(assert (not (= denominator_VAR 0)))
(assert (not (= denominator_VAR 0)))
(assert (< 37 (+ limit_VAR 1)))
(assert (not (= denominator_VAR 0)))
(assert (not (= denominator_VAR 0)))
(assert (< 38 (+ limit_VAR 1)))
(assert (not (= denominator_VAR 0)))
(assert (not (= denominator_VAR 0)))
(assert (< 39 (+ limit_VAR 1)))
(assert (not (= denominator_VAR 0)))
(assert (not (= denominator_VAR 0)))
(assert (< 40 (+ limit_VAR 1)))
(assert (not (= denominator_VAR 0)))
(assert (not (= denominator_VAR 0)))
(assert (< 41 (+ limit_VAR 1)))
(assert (not (= denominator_VAR 0)))
(assert (not (= denominator_VAR 0)))
(assert (< 42 (+ limit_VAR 1)))
(assert (not (= denominator_VAR 0)))
(assert (not (= denominator_VAR 0)))
(assert (< 43 (+ limit_VAR 1)))
(assert (not (= denominator_VAR 0)))
(assert (not (= denominator_VAR 0)))
(assert (< 44 (+ limit_VAR 1)))
(assert (not (= denominator_VAR 0)))
(assert (not (= denominator_VAR 0)))
(assert (< 45 (+ limit_VAR 1)))
(assert (not (= denominator_VAR 0)))
(assert (not (= denominator_VAR 0)))
(assert (< 46 (+ limit_VAR 1)))
(assert (not (= denominator_VAR 0)))
(assert (not (= denominator_VAR 0)))
(assert (< 47 (+ limit_VAR 1)))
(assert (not (= denominator_VAR 0)))
(assert (not (= denominator_VAR 0)))
(assert (< 48 (+ limit_VAR 1)))
(assert (not (= denominator_VAR 0)))
(assert (not (= denominator_VAR 0)))
(assert (< 49 (+ limit_VAR 1)))
(assert (not (= denominator_VAR 0)))
(assert (not (= denominator_VAR 0)))
(assert (< 50 (+ limit_VAR 1)))
(assert (not (= denominator_VAR 0)))
(assert (not (= denominator_VAR 0)))
(assert (< 51 (+ limit_VAR 1)))
(assert (not (= denominator_VAR 0)))
(assert (not (= denominator_VAR 0)))
(assert (< 52 (+ limit_VAR 1)))
(assert (not (= denominator_VAR 0)))
(assert (not (= denominator_VAR 0)))
(assert (< 53 (+ limit_VAR 1)))
(assert (not (= denominator_VAR 0)))
(assert (not (= denominator_VAR 0)))
(assert (< 54 (+ limit_VAR 1)))
(assert (not (= denominator_VAR 0)))
(assert (not (= denominator_VAR 0)))
(assert (< 55 (+ limit_VAR 1)))
(assert (not (= denominator_VAR 0)))
(assert (not (= denominator_VAR 0)))
(assert (< 56 (+ limit_VAR 1)))
(assert (not (= denominator_VAR 0)))
(assert (not (= denominator_VAR 0)))
(assert (< 57 (+ limit_VAR 1)))
(assert (not (= denominator_VAR 0)))
(assert (not (= denominator_VAR 0)))
(assert (< 58 (+ limit_VAR 1)))
(assert (not (= denominator_VAR 0)))
(assert (not (= denominator_VAR 0)))
(assert (< 59 (+ limit_VAR 1)))
(assert (not (= denominator_VAR 0)))
(assert (not (= denominator_VAR 0)))
(assert (< 60 (+ limit_VAR 1)))
(assert (not (= denominator_VAR 0)))
(assert (not (= denominator_VAR 0)))
(assert (< 61 (+ limit_VAR 1)))
(assert (not (= denominator_VAR 0)))
(assert (not (= denominator_VAR 0)))
(assert (< 62 (+ limit_VAR 1)))
(assert (not (= denominator_VAR 0)))
(assert (not (= denominator_VAR 0)))
(assert (< 63 (+ limit_VAR 1)))
(assert (not (= denominator_VAR 0)))
(assert (not (= denominator_VAR 0)))
(assert (< 64 (+ limit_VAR 1)))
(assert (not (= denominator_VAR 0)))
(assert (not (= denominator_VAR 0)))
(assert (< 65 (+ limit_VAR 1)))
(assert (not (= denominator_VAR 0)))
(assert (not (= denominator_VAR 0)))
(assert (< 66 (+ limit_VAR 1)))
(assert (not (= denominator_VAR 0)))
(assert (not (= denominator_VAR 0)))
(assert (< 67 (+ limit_VAR 1)))
(assert (not (= denominator_VAR 0)))
(assert (not (= denominator_VAR 0)))
(assert (< 68 (+ limit_VAR 1)))
(assert (not (= denominator_VAR 0)))
(assert (not (= denominator_VAR 0)))
(assert (< 69 (+ limit_VAR 1)))
(assert (not (= denominator_VAR 0)))
(assert (not (= denominator_VAR 0)))
(assert (< 70 (+ limit_VAR 1)))
(assert (not (= denominator_VAR 0)))
(assert (not (= denominator_VAR 0)))
(assert (< 71 (+ limit_VAR 1)))
(assert (not (= denominator_VAR 0)))
(assert (not (= denominator_VAR 0)))
(assert (< 72 (+ limit_VAR 1)))
(assert (not (= denominator_VAR 0)))
(assert (not (= denominator_VAR 0)))
(assert (< 73 (+ limit_VAR 1)))
(assert (not (= denominator_VAR 0)))
(assert (not (= denominator_VAR 0)))
(assert (< 74 (+ limit_VAR 1)))
(assert (not (= denominator_VAR 0)))
(assert (not (= denominator_VAR 0)))
(assert (< 75 (+ limit_VAR 1)))
(assert (not (= denominator_VAR 0)))
(assert (not (= denominator_VAR 0)))
(assert (< 76 (+ limit_VAR 1)))
(assert (not (= denominator_VAR 0)))
(assert (not (= denominator_VAR 0)))
(assert (< 77 (+ limit_VAR 1)))
(assert (not (= denominator_VAR 0)))
(assert (not (= denominator_VAR 0)))
(assert (< 78 (+ limit_VAR 1)))
(assert (not (= denominator_VAR 0)))
(assert (not (= denominator_VAR 0)))
(assert (< 79 (+ limit_VAR 1)))
(assert (not (= denominator_VAR 0)))
(assert (not (= denominator_VAR 0)))
(assert (< 80 (+ limit_VAR 1)))
(assert (not (= denominator_VAR 0)))
(assert (not (= denominator_VAR 0)))
(assert (< 81 (+ limit_VAR 1)))
(assert (not (= denominator_VAR 0)))
(assert (not (= denominator_VAR 0)))
(assert (< 82 (+ limit_VAR 1)))
(assert (not (= denominator_VAR 0)))
(assert (not (= denominator_VAR 0)))
(assert (< 83 (+ limit_VAR 1)))
(assert (not (= denominator_VAR 0)))
(assert (not (= denominator_VAR 0)))
(assert (< 84 (+ limit_VAR 1)))
(assert (not (= denominator_VAR 0)))
(assert (not (= denominator_VAR 0)))
(assert (< 85 (+ limit_VAR 1)))
(assert (not (= denominator_VAR 0)))
(assert (not (= denominator_VAR 0)))
(assert (< 86 (+ limit_VAR 1)))
(assert (not (= denominator_VAR 0)))
(assert (not (= denominator_VAR 0)))
(assert (< 87 (+ limit_VAR 1)))
(assert (not (= denominator_VAR 0)))
(assert (not (= denominator_VAR 0)))
(assert (< 88 (+ limit_VAR 1)))
(assert (not (= denominator_VAR 0)))
(assert (not (= denominator_VAR 0)))
(assert (< 89 (+ limit_VAR 1)))
(assert (not (= denominator_VAR 0)))
(assert (not (= denominator_VAR 0)))
(assert (< 90 (+ limit_VAR 1)))
(assert (not (= denominator_VAR 0)))
(assert (not (= denominator_VAR 0)))
(assert (< 91 (+ limit_VAR 1)))
(assert (not (= denominator_VAR 0)))
(assert (not (= denominator_VAR 0)))
(assert (< 92 (+ limit_VAR 1)))
(assert (not (= denominator_VAR 0)))
(assert (not (= denominator_VAR 0)))
(assert (< 93 (+ limit_VAR 1)))
(assert (not (= denominator_VAR 0)))
(assert (not (= denominator_VAR 0)))
(assert (< 94 (+ limit_VAR 1)))
(assert (not (= denominator_VAR 0)))
(assert (not (= denominator_VAR 0)))
(assert (< 95 (+ limit_VAR 1)))
(assert (not (= denominator_VAR 0)))
(assert (not (= denominator_VAR 0)))
(assert (< 96 (+ limit_VAR 1)))
(assert (not (= denominator_VAR 0)))
(assert (not (= denominator_VAR 0)))
(assert (< 97 (+ limit_VAR 1)))
(assert (not (= denominator_VAR 0)))
(assert (not (= denominator_VAR 0)))
(assert (< 98 (+ limit_VAR 1)))
(assert (not (= denominator_VAR 0)))
(assert (not (= denominator_VAR 0)))
(assert (< 99 (+ limit_VAR 1)))
(assert (not (= denominator_VAR 0)))
(assert (not (= denominator_VAR 0)))
(assert (< 100 (+ limit_VAR 1)))
(assert (not (= denominator_VAR 0)))
(assert (not (= denominator_VAR 0)))
(assert (< 101 (+ limit_VAR 1)))
(assert (not (= denominator_VAR 0)))
(assert (not (= denominator_VAR 0)))
(assert (< 102 (+ limit_VAR 1)))
(assert (not (= denominator_VAR 0)))
(assert (not (= denominator_VAR 0)))
(assert (< 103 (+ limit_VAR 1)))
(assert (not (= denominator_VAR 0)))
(assert (not (= denominator_VAR 0)))
(assert (< 104 (+ limit_VAR 1)))
(assert (not (= denominator_VAR 0)))
(assert (not (= denominator_VAR 0)))
(assert (< 105 (+ limit_VAR 1)))
(assert (not (= denominator_VAR 0)))
(assert (not (= denominator_VAR 0)))
(assert (< 106 (+ limit_VAR 1)))
(assert (not (= denominator_VAR 0)))
(assert (not (= denominator_VAR 0)))
(assert (< 107 (+ limit_VAR 1)))
(assert (not (= denominator_VAR 0)))
(assert (not (= denominator_VAR 0)))
(assert (< 108 (+ limit_VAR 1)))
(assert (not (= denominator_VAR 0)))
(assert (not (= denominator_VAR 0)))
(assert (< 109 (+ limit_VAR 1)))
(assert (not (= denominator_VAR 0)))
(assert (not (= denominator_VAR 0)))
(assert (< 110 (+ limit_VAR 1)))
(assert (not (= denominator_VAR 0)))
(assert (not (= denominator_VAR 0)))
(assert (< 111 (+ limit_VAR 1)))
(assert (not (= denominator_VAR 0)))
(assert (not (= denominator_VAR 0)))
(assert (< 112 (+ limit_VAR 1)))
(assert (not (= denominator_VAR 0)))
(assert (not (= denominator_VAR 0)))
(assert (< 113 (+ limit_VAR 1)))
(assert (not (= denominator_VAR 0)))
(assert (not (= denominator_VAR 0)))
(assert (< 114 (+ limit_VAR 1)))
(assert (not (= denominator_VAR 0)))
(assert (not (= denominator_VAR 0)))
(assert (< 115 (+ limit_VAR 1)))
(assert (not (= denominator_VAR 0)))
(assert (not (= denominator_VAR 0)))
(assert (< 116 (+ limit_VAR 1)))
(assert (not (= denominator_VAR 0)))
(assert (not (= denominator_VAR 0)))
(assert (< 117 (+ limit_VAR 1)))
(assert (not (= denominator_VAR 0)))
(assert (not (= denominator_VAR 0)))
(assert (< 118 (+ limit_VAR 1)))
(assert (not (= denominator_VAR 0)))
(assert (not (= denominator_VAR 0)))
(assert (< 119 (+ limit_VAR 1)))
(assert (not (= denominator_VAR 0)))
(assert (not (= denominator_VAR 0)))
(assert (< 120 (+ limit_VAR 1)))
(assert (not (= denominator_VAR 0)))
(assert (not (= denominator_VAR 0)))
(assert (< 121 (+ limit_VAR 1)))
(assert (not (= denominator_VAR 0)))
(assert (not (= denominator_VAR 0)))
(assert (< 122 (+ limit_VAR 1)))
(assert (not (= denominator_VAR 0)))
(assert (not (= denominator_VAR 0)))
(assert (< 123 (+ limit_VAR 1)))
(assert (not (= denominator_VAR 0)))
(assert (not (= denominator_VAR 0)))
(assert (< 124 (+ limit_VAR 1)))
(assert (not (= denominator_VAR 0)))
(assert (not (= denominator_VAR 0)))
(assert (< 125 (+ limit_VAR 1)))
(assert (not (= denominator_VAR 0)))
(assert (not (= denominator_VAR 0)))
(assert (< 126 (+ limit_VAR 1)))
(assert (not (= denominator_VAR 0)))
(assert (not (= denominator_VAR 0)))
(assert (< 127 (+ limit_VAR 1)))
(assert (not (= denominator_VAR 0)))
(assert (not (= denominator_VAR 0)))
(assert (< 128 (+ limit_VAR 1)))
(assert (not (= denominator_VAR 0)))
(assert (not (= denominator_VAR 0)))
(assert (< 129 (+ limit_VAR 1)))
(assert (not (= denominator_VAR 0)))
(assert (not (= denominator_VAR 0)))
(assert (< 130 (+ limit_VAR 1)))
(assert (not (= denominator_VAR 0)))
(assert (not (= denominator_VAR 0)))
(assert (< 131 (+ limit_VAR 1)))
(assert (not (= denominator_VAR 0)))
(assert (not (= denominator_VAR 0)))
(assert (< 132 (+ limit_VAR 1)))
(assert (not (= denominator_VAR 0)))
(assert (not (= denominator_VAR 0)))
(assert (< 133 (+ limit_VAR 1)))
(assert (not (= denominator_VAR 0)))
(assert (not (= denominator_VAR 0)))
(assert (< 134 (+ limit_VAR 1)))
(assert (not (= denominator_VAR 0)))
(assert (not (= denominator_VAR 0)))
(assert (< 135 (+ limit_VAR 1)))
(assert (not (= denominator_VAR 0)))
(assert (not (= denominator_VAR 0)))
(assert (< 136 (+ limit_VAR 1)))
(assert (not (= denominator_VAR 0)))
(assert (not (= denominator_VAR 0)))
(assert (< 137 (+ limit_VAR 1)))
(assert (not (= denominator_VAR 0)))
(assert (not (= denominator_VAR 0)))
(assert (< 138 (+ limit_VAR 1)))
(assert (not (= denominator_VAR 0)))
(assert (not (= denominator_VAR 0)))
(assert (< 139 (+ limit_VAR 1)))
(assert (not (= denominator_VAR 0)))
(assert (not (= denominator_VAR 0)))
(assert (< 140 (+ limit_VAR 1)))
(assert (not (= denominator_VAR 0)))
(assert (not (= denominator_VAR 0)))
(assert (< 141 (+ limit_VAR 1)))
(assert (not (= denominator_VAR 0)))
(assert (not (= denominator_VAR 0)))
(assert (< 142 (+ limit_VAR 1)))
(assert (not (= denominator_VAR 0)))
(assert (not (= denominator_VAR 0)))
(assert (< 143 (+ limit_VAR 1)))
(assert (not (= denominator_VAR 0)))
(assert (not (= denominator_VAR 0)))
(assert (< 144 (+ limit_VAR 1)))
(assert (not (= denominator_VAR 0)))
(assert (not (= denominator_VAR 0)))
(assert (< 145 (+ limit_VAR 1)))
(assert (not (= denominator_VAR 0)))
(assert (not (= denominator_VAR 0)))
(assert (< 146 (+ limit_VAR 1)))
(assert (not (= denominator_VAR 0)))
(assert (not (= denominator_VAR 0)))
(assert (< 147 (+ limit_VAR 1)))
(assert (not (= denominator_VAR 0)))
(assert (not (= denominator_VAR 0)))
(assert (< 148 (+ limit_VAR 1)))
(assert (not (= denominator_VAR 0)))
(assert (not (= denominator_VAR 0)))
(assert (< 149 (+ limit_VAR 1)))
(assert (not (= denominator_VAR 0)))
(assert (not (= denominator_VAR 0)))
(assert (< 150 (+ limit_VAR 1)))
(assert (not (= denominator_VAR 0)))
(assert (not (= denominator_VAR 0)))
(assert (< 151 (+ limit_VAR 1)))
(assert (not (= denominator_VAR 0)))
(assert (not (= denominator_VAR 0)))
(assert (< 152 (+ limit_VAR 1)))
(assert (not (= denominator_VAR 0)))
(assert (not (= denominator_VAR 0)))
(assert (< 153 (+ limit_VAR 1)))
(assert (not (= denominator_VAR 0)))
(assert (not (= denominator_VAR 0)))
(assert (< 154 (+ limit_VAR 1)))
(check-sat)
(get-value (numerator_VAR))
(get-value (denominator_VAR))
(get-value (limit_VAR))
